c description: tiling of 
c generator: CNFgen (0.9.0)
c copyright: (C) 2012-2020 Massimo Lauria <massimo.lauria@uniroma1.it>
c url: https://massimolauria.net/cnfgen
c
p cnf 20 232
-1 -2 0
-1 -5 0
-1 -6 0
-1 -13 0
-1 -20 0
-2 -5 0
-2 -6 0
-2 -13 0
-2 -20 0
-5 -6 0
-5 -13 0
-5 -20 0
-6 -13 0
-6 -20 0
-13 -20 0
1 2 5 6 13 20 0
-1 -4 0
-1 -7 0
-1 -11 0
-1 -16 0
-1 -18 0
-4 -7 0
-4 -11 0
-4 -16 0
-4 -18 0
-7 -11 0
-7 -16 0
-7 -18 0
-11 -16 0
-11 -18 0
-16 -18 0
1 4 7 11 16 18 0
-1 -5 0
-1 -6 0
-1 -7 0
-1 -10 0
-1 -14 0
-1 -19 0
-5 -6 0
-5 -7 0
-5 -10 0
-5 -14 0
-5 -19 0
-6 -7 0
-6 -10 0
-6 -14 0
-6 -19 0
-7 -10 0
-7 -14 0
-7 -19 0
-10 -14 0
-10 -19 0
-14 -19 0
1 5 6 7 10 14 19 0
-1 -5 0
-1 -6 0
-1 -11 0
-1 -20 0
-5 -6 0
-5 -11 0
-5 -20 0
-6 -11 0
-6 -20 0
-11 -20 0
1 5 6 11 20 0
-1 -9 0
-1 -14 0
-1 -15 0
-1 -19 0
-9 -14 0
-9 -15 0
-9 -19 0
-14 -15 0
-14 -19 0
-15 -19 0
1 9 14 15 19 0
-1 -10 0
-1 -18 0
-10 -18 0
1 10 18 0
-1 -14 0
-1 -17 0
-1 -18 0
-1 -19 0
-14 -17 0
-14 -18 0
-14 -19 0
-17 -18 0
-17 -19 0
-18 -19 0
1 14 17 18 19 0
-2 -3 0
-2 -4 0
-2 -8 0
-2 -12 0
-2 -15 0
-3 -4 0
-3 -8 0
-3 -12 0
-3 -15 0
-4 -8 0
-4 -12 0
-4 -15 0
-8 -12 0
-8 -15 0
-12 -15 0
2 3 4 8 12 15 0
-2 -3 0
-2 -6 0
-2 -11 0
-2 -13 0
-3 -6 0
-3 -11 0
-3 -13 0
-6 -11 0
-6 -13 0
-11 -13 0
2 3 6 11 13 0
-2 -6 0
-2 -12 0
-2 -13 0
-2 -17 0
-6 -12 0
-6 -13 0
-6 -17 0
-12 -13 0
-12 -17 0
-13 -17 0
2 6 12 13 17 0
-2 -15 0
-2 -17 0
-2 -18 0
-2 -19 0
-2 -20 0
-15 -17 0
-15 -18 0
-15 -19 0
-15 -20 0
-17 -18 0
-17 -19 0
-17 -20 0
-18 -19 0
-18 -20 0
-19 -20 0
2 15 17 18 19 20 0
-3 -4 0
-3 -7 0
-3 -12 0
-3 -15 0
-4 -7 0
-4 -12 0
-4 -15 0
-7 -12 0
-7 -15 0
-12 -15 0
3 4 7 12 15 0
-3 -4 0
-3 -12 0
-3 -13 0
-3 -15 0
-3 -16 0
-4 -12 0
-4 -13 0
-4 -15 0
-4 -16 0
-12 -13 0
-12 -15 0
-12 -16 0
-13 -15 0
-13 -16 0
-15 -16 0
3 4 12 13 15 16 0
-3 -4 0
-3 -12 0
-3 -14 0
-3 -15 0
-3 -17 0
-4 -12 0
-4 -14 0
-4 -15 0
-4 -17 0
-12 -14 0
-12 -15 0
-12 -17 0
-14 -15 0
-14 -17 0
-15 -17 0
3 4 12 14 15 17 0
-3 -7 0
-3 -8 0
-3 -9 0
-3 -16 0
-7 -8 0
-7 -9 0
-7 -16 0
-8 -9 0
-8 -16 0
-9 -16 0
3 7 8 9 16 0
-5 -6 0
-5 -17 0
-5 -20 0
-6 -17 0
-6 -20 0
-17 -20 0
5 6 17 20 0
-5 -7 0
-5 -11 0
-5 -13 0
-7 -11 0
-7 -13 0
-11 -13 0
5 7 11 13 0
-7 -10 0
-7 -17 0
-7 -18 0
-7 -19 0
-10 -17 0
-10 -18 0
-10 -19 0
-17 -18 0
-17 -19 0
-18 -19 0
7 10 17 18 19 0
-8 -12 0
-8 -16 0
-12 -16 0
8 12 16 0
-9 -14 0
-9 -16 0
-14 -16 0
9 14 16 0